NAME: random_points
TYPE: TSP
DIMENSION: 21
EDGE_WEIGHT_TYPE: EUC_2D
NODE_COORD_SECTION
1 30 91
2 129 8
3 961 864
4 116 750
5 631 340
6 384 664
7 726 540
8 90 691
9 852 516
10 296 339
11 435 127
12 10 135
13 472 983
14 459 569
15 824 289
16 520 479
17 819 915
18 422 938
19 919 239
20 797 444
21 177 446
EOF
